40 15
0 0 7 7
7 0 12 7
19 0 12 6
31 0 9 6
19 6 16 3
0 7 16 3
19 9 10 3
29 9 10 3
0 10 9 3
35 6 5 3
9 10 5 3
19 12 12 2
31 12 7 2
14 10 5 2
14 12 4 2
0 13 7 2
7 13 6 2
16 7 3 2
19 14 6 1
14 14 5 1
25 14 4 1
16 9 3 1
29 14 5 1
